100
1000
393
390
390
389
386
382
381
381
381
380
379
379
377
375
372
370
368
368
367
366
366
365
365
363
361
359
359
357
357
356
355
355
355
353
352
352
347
347
346
344
344
341
337
336
334
334
333
333
333
332
332
329
328
326
326
324
324
319
319
318
316
312
312
311
310
309
307
306
305
305
301
300
299
298
298
296
296
294
292
290
289
289
286
284
284
283
281
280
278
278
277
277
273
273
272
271
269
268
268
267
